p cnf 15 27
-15 -14 13 0
-15 11 -3 0
15 10 -4 0
15 -9 8 0
14 12 7 0
-14 -10 7 0
14 -9 1 0
-14 -7 3 0
14 3 -1 0
14 -2 1 0
-13 -10 -5 0
-12 -11 1 0
-12 10 -8 0
12 -9 -5 0
-12 8 5 0
12 -7 -4 0
-12 4 -1 0
12 3 -1 0
11 -10 -9 0
-11 -5 -2 0
10 -6 4 0
9 -8 7 0
-8 -6 -5 0
7 -6 4 0
-7 -4 -1 0
-6 3 1 0
5 4 -2 0
